c FILE /home/rafael/Documents/HappySet/MIHS/inputs/happygen/output/graph_d_regular_k10_p0.3_v50_20241127_082700.txt
c SOURCE This is a d-regular graph formed for the happy graph colouring problem.
c DESCRIPTION It was generated using the problem generator of Rhyd Lewis
c
c GRAPH STATS
c Seed                             = 1360592775
c Number of Nodes                  = 50
c Number of colours k              = 10
c Number of pre-assignments        = 15
c Degree of all vertices           = 6
c Density                          = 0.122449
c 
c The degrees of nodes 1 to 50, respectively, are as follows 
c [6, 6, 6, 6, 6, 6, 6, 6, 6, 6, 6, 6, 6, 6, 6, 6, 6, 6, 6, 6, 6, 6, 6, 6, 6, 6, 
c  6, 6, 6, 6, 6, 6, 6, 6, 6, 6, 6, 6, 6, 6, 6, 6, 6, 6, 6, 6, 6, 6, 6, 6] 
c  
p edge 50 150 10
e 1 8
e 1 10
e 1 24
e 1 27
e 1 41
e 1 50
e 2 8
e 2 10
e 2 23
e 2 30
e 2 36
e 2 50
e 3 13
e 3 16
e 3 26
e 3 28
e 3 31
e 3 42
e 4 6
e 4 8
e 4 11
e 4 21
e 4 37
e 4 46
e 5 14
e 5 29
e 5 36
e 5 38
e 5 41
e 5 49
e 6 24
e 6 35
e 6 36
e 6 39
e 6 48
e 7 11
e 7 33
e 7 34
e 7 35
e 7 41
e 7 43
e 8 19
e 8 27
e 8 34
e 9 29
e 9 39
e 9 43
e 9 48
e 9 49
e 9 50
e 10 12
e 10 20
e 10 38
e 10 42
e 11 20
e 11 29
e 11 36
e 11 48
e 12 31
e 12 33
e 12 35
e 12 38
e 12 39
e 13 18
e 13 23
e 13 25
e 13 43
e 13 44
e 14 20
e 14 24
e 14 36
e 14 41
e 14 44
e 15 21
e 15 26
e 15 27
e 15 32
e 15 39
e 15 45
e 16 20
e 16 32
e 16 33
e 16 40
e 16 49
e 17 23
e 17 30
e 17 32
e 17 34
e 17 45
e 17 50
e 18 19
e 18 21
e 18 22
e 18 31
e 18 32
e 19 21
e 19 26
e 19 34
e 19 35
e 20 37
e 20 50
e 21 22
e 21 48
e 22 24
e 22 30
e 22 32
e 22 48
e 23 33
e 23 42
e 23 44
e 24 46
e 24 49
e 25 29
e 25 38
e 25 43
e 25 44
e 25 47
e 26 36
e 26 47
e 26 49
e 27 28
e 27 40
e 27 42
e 28 35
e 28 37
e 28 43
e 28 47
e 29 38
e 29 39
e 30 34
e 30 40
e 30 45
e 31 32
e 31 33
e 31 40
e 33 42
e 34 46
e 35 45
e 37 46
e 37 47
e 37 50
e 38 45
e 39 46
e 40 41
e 40 44
e 41 48
e 42 47
e 43 46
e 44 45
e 47 49
n 2 10
n 3 2
n 6 5
n 12 3
n 13 2
n 21 1
n 22 1
n 27 9
n 29 7
n 37 8
n 40 9
n 41 9
n 43 2
n 45 4
n 49 6
